p cnf 23 11
a 1 2 3 0
e 4 0
a 5 6 7 8 9 0
e 10 0
a 11 12 0
e 13 14 15 16 0
a 17 0
e 18 19 20 21 22 23 0
-10 -15 16 0
18 11 -15 0
20 14 21 10 0
-18 4 -17 11 15 0
10 -8 11 12 0
-5 10 -4 0
18 10 0
1 -12 -11 -4 20 0
-5 1 21 23 0
-18 -6 22 0
-19 -17 5 8 -2 0
